p cnf 10 50
-9 8 -5 0
-5 -10 -4 0
7 -1 -9 0
1 5 6 0
-2 -9 5 0
4 -2 -5 0
3 8 1 0
-2 5 8 0
-1 10 -9 0
6 -10 7 0
-3 10 -1 0
-4 -7 9 0
-2 6 -1 0
-1 -2 -8 0
4 9 2 0
7 -10 -4 0
7 -4 -5 0
5 -2 1 0
8 10 -7 0
6 -10 -9 0
8 1 2 0
4 -9 -6 0
8 -6 3 0
6 -5 -2 0
5 10 3 0
-7 4 8 0
-3 -7 -5 0
-4 6 -2 0
-4 -3 -8 0
10 -2 -9 0
-2 -7 10 0
4 -6 -7 0
10 3 9 0
8 -3 -6 0
-8 3 5 0
-1 -3 -7 0
9 -10 -4 0
4 8 -1 0
-1 7 -4 0
-8 -5 1 0
1 2 -10 0
-10 8 3 0
4 6 3 0
-2 9 -1 0
-10 7 9 0
-5 2 6 0
-5 -4 9 0
2 1 -4 0
8 -9 6 0
-5 3 -8 0